5 5
3 41 4 64 2 27 1 63 0 17
4 73 3 33 1 84 0 77 2 92
3 29 4 13 2 46 1 35 0 6
2 82 1 69 3 47 4 25 0 66
1 10 4 56 3 30 2 5 0 33
-1
0 1 5
0 1 3 4 5
0 2 5
0 2 5
0 1 2 5
-2
62 315
98 272 388 440
45 202
230 420
14 86 196

404 5
24 8 19 4 14
20 16 7 3 13
15 23 12 2 9
0 10 6 22 17
5 21 1 11 18
